letting n =  10
letting blocks =  [[1, 1], [1, 4], [1, 5], [1, 6], [1, 8], [1, 9], [2, 1], [2, 2], [2, 5], [2, 7], [2, 9], [2, 10], [3, 3], [3, 5], [3, 6], [3, 7], [3, 8], [3, 9], [4, 1], [4, 2], [4, 4], [4, 8], [5, 2], [5, 3], [5, 4], [5, 5], [5, 7], [5, 8], [6, 3], [6, 4], [6, 6], [6, 8], [6, 9], [6, 10], [7, 1], [7, 3], [7, 5], [7, 6], [7, 9], [7, 10], [8, 2], [8, 3], [8, 5], [8, 6], [8, 7], [8, 10], [9, 1], [9, 2], [9, 3], [9, 7], [9, 9], [9, 10], [10, 1], [10, 4], [10, 6], [10, 7], [10, 8], [10, 10]]
